
Gurobi 11.0.2 (win64) logging started Mon Jan 20 14:40:53 2025

Set parameter LogFile to value "log_STTP1_targetS1_E1_Gurobi.log"
Set parameter Method to value 0

Gurobi 11.0.2 (win64) logging started Mon Jan 20 14:41:01 2025

Set parameter LogFile to value "log_STTP1_targetS1_E1_Gurobi.log"
Gurobi Optimizer version 11.0.2 build v11.0.2rc0 (win64 - Windows 11.0 (22621.2))

CPU model: 12th Gen Intel(R) Core(TM) i7-12700, instruction set [SSE2|AVX|AVX2]
Thread count: 12 physical cores, 20 logical processors, using up to 20 threads

Optimize a model with 2506792 rows, 3590 columns and 5014472 nonzeros
Model fingerprint: 0x5bf6d660
Variable types: 0 continuous, 3590 integer (3590 binary)
Coefficient statistics:
  Matrix range     [1e+00, 1e+00]
  Objective range  [1e+00, 1e+00]
  Bounds range     [0e+00, 0e+00]
  RHS range        [1e+00, 2e+00]
Found heuristic solution: objective -0.0000000
Presolve removed 2493205 rows and 0 columns
Presolve time: 0.57s
Presolved: 13587 rows, 3590 columns, 28062 nonzeros
Variable types: 0 continuous, 3590 integer (3590 binary)
Found heuristic solution: objective 315.0000000

Root relaxation: objective 3.373333e+02, 1645 iterations, 0.01 seconds (0.01 work units)

    Nodes    |    Current Node    |     Objective Bounds      |     Work
 Expl Unexpl |  Obj  Depth IntInf | Incumbent    BestBd   Gap | It/Node Time

     0     0  337.33333    0   44  315.00000  337.33333  7.09%     -    0s
H    0     0                     336.0000000  337.33333  0.40%     -    0s

Cutting planes:
  Gomory: 3
  Clique: 2
  Zero half: 25

Explored 1 nodes (2105 simplex iterations) in 1.08 seconds (0.99 work units)
Thread count was 20 (of 20 available processors)

Solution count 4: 336 315 41 -0 

Optimal solution found (tolerance 1.00e-04)
Best objective 3.360000000000e+02, best bound 3.360000000000e+02, gap 0.0000%

User-callback calls 344, time in user-callback 0.00 sec
